
  22   10
  10   10   10   10   10   10   10   10   10   10

   0   0   0   0   0   0   0   0   0   0   0   5 2 6 19 20 21 
   6  10  10  10  10  10  10  10  10  10  10   4 18 17 5 3 
   7  10  10  10  10  10  10  10  10  10  10   2 12 4 
   8  10  10  10  10  10  10  10  10  10  10   4 16 11 9 7 
   6  10  10  10  10  10  10  10  10  10  10   3 15 11 10 
   6  10  10  10  10  10  10  10  10  10  10   3 18 17 9 
   6  10  10  10  10  10  10  10  10  10  10   1 8 
   1  10  10  10  10  10  10  10  10  10  10   3 15 14 13 
   4  10  10  10  10  10  10  10  10  10  10   1 10 
   7  10  10  10  10  10  10  10  10  10  10   1 13 
   3  10  10  10  10  10  10  10  10  10  10   1 14 
  10  10  10  10  10  10  10  10  10  10  10   1 14 
   9  10  10  10  10  10  10  10  10  10  10   1 22
   6  10  10  10  10  10  10  10  10  10  10   1 22
   6  10  10  10  10  10  10  10  10  10  10   1 22
   7  10  10  10  10  10  10  10  10  10  10   1 22
   2  10  10  10  10  10  10  10  10  10  10   1 22
   1  10  10  10  10  10  10  10  10  10  10   1 22
   5  10  10  10  10  10  10  10  10  10  10   1 22
   2  10  10  10  10  10  10  10  10  10  10   1 22
   7  10  10  10  10  10  10  10  10  10  10   1 22
   0   0   0   0   0   0   0   0   0   0   0   0 
